Minimize

9.99 x_0 + 9.95 x_1 + 5.99 x_2 + 5.95 x_3 + 19.99 x_4 + 19.95 x_5 + 2.49 x_6 + 2.45 x_7 + 14.99 x_8 + 14.95 x_9


Subject To

a0: 1 x_0 + 1 x_1 + 0 x_2 + 0 x_3 + 1 x_4 + 0 x_5 + 1 x_6 + 0 x_7 + 0 x_8 + 0 x_9 >= 1
a1: 1 x_0 + 0 x_1 + 0 x_2 + 0 x_3 + 0 x_4 + 1 x_5 + 0 x_6 + 1 x_7 + 1 x_8 + 0 x_9 >= 1
a2: 0 x_0 + 0 x_1 + 0 x_2 + 0 x_3 + 1 x_4 + 0 x_5 + 0 x_6 + 0 x_7 + 0 x_8 + 1 x_9 >= 1
a3: 0 x_0 + 0 x_1 + 0 x_2 + 1 x_3 + 0 x_4 + 1 x_5 + 0 x_6 + 0 x_7 + 0 x_8 + 1 x_9 >= 1
a4: 0 x_0 + 1 x_1 + 0 x_2 + 0 x_3 + 1 x_4 + 0 x_5 + 0 x_6 + 0 x_7 + 0 x_8 + 1 x_9 >= 1
a5: 0 x_0 + 0 x_1 + 1 x_2 + 0 x_3 + 0 x_4 + 1 x_5 + 0 x_6 + 0 x_7 + 1 x_8 + 0 x_9 >= 1
a6: 0 x_0 + 0 x_1 + 0 x_2 + 0 x_3 + 1 x_4 + 0 x_5 + 0 x_6 + 0 x_7 + 1 x_8 + 0 x_9 >= 1
a7: 0 x_0 + 0 x_1 + 0 x_2 + 1 x_3 + 0 x_4 + 1 x_5 + 0 x_6 + 0 x_7 + 0 x_8 + 0 x_9 >= 1
a8: 0 x_0 + 0 x_1 + 1 x_2 + 0 x_3 + 0 x_4 + 0 x_5 + 0 x_6 + 0 x_7 + 0 x_8 + 0 x_9 >= 1




Binary

x_0 x_1 x_2 x_3 x_4 x_5 x_6 x_7 x_8 x_9

 
End
